c Grafo no formato DIMACS 
p edge 70 224 
e 1 67 
e 1 65 
e 1 51 
e 1 34 
e 1 28 
e 1 19 
e 1 14 
e 1 10 
e 1 4 
e 2 40 
e 2 37 
e 2 31 
e 2 25 
e 2 18 
e 2 17 
e 2 9 
e 2 6 
e 3 50 
e 3 36 
e 3 27 
e 3 19 
e 3 15 
e 3 12 
e 3 10 
e 3 7 
e 4 60 
e 4 41 
e 4 31 
e 4 28 
e 4 27 
e 5 70 
e 5 66 
e 5 51 
e 5 50 
e 5 36 
e 5 29 
e 6 61 
e 6 55 
e 6 29 
e 6 28 
e 6 27 
e 6 22 
e 6 17 
e 6 7 
e 7 67 
e 7 64 
e 7 56 
e 7 47 
e 7 35 
e 7 34 
e 7 29 
e 7 28 
e 7 22 
e 7 13 
e 7 11 
e 8 60 
e 8 41 
e 8 35 
e 8 34 
e 8 29 
e 8 12 
e 9 59 
e 9 29 
e 9 25 
e 9 19 
e 10 70 
e 10 62 
e 10 38 
e 10 30 
e 11 70 
e 11 66 
e 11 61 
e 11 56 
e 11 26 
e 11 24 
e 11 20 
e 11 18 
e 11 12 
e 12 49 
e 12 46 
e 12 36 
e 13 66 
e 13 35 
e 13 27 
e 14 54 
e 14 53 
e 14 49 
e 14 37 
e 14 36 
e 14 28 
e 15 59 
e 16 50 
e 16 25 
e 17 67 
e 17 36 
e 17 21 
e 17 18 
e 18 69 
e 18 59 
e 18 57 
e 18 52 
e 18 44 
e 18 21 
e 19 50 
e 19 49 
e 19 37 
e 19 27 
e 19 24 
e 19 20 
e 20 68 
e 20 62 
e 20 57 
e 20 49 
e 20 28 
e 21 54 
e 21 53 
e 21 36 
e 21 22 
e 22 59 
e 22 30 
e 22 28 
e 23 65 
e 23 57 
e 23 41 
e 23 29 
e 24 67 
e 24 60 
e 25 56 
e 25 52 
e 25 47 
e 25 45 
e 26 66 
e 26 58 
e 26 57 
e 26 49 
e 26 40 
e 26 37 
e 26 36 
e 26 28 
e 27 68 
e 27 54 
e 27 51 
e 27 35 
e 27 32 
e 28 63 
e 28 62 
e 28 53 
e 28 51 
e 29 70 
e 29 69 
e 29 63 
e 29 59 
e 29 55 
e 29 54 
e 29 51 
e 29 42 
e 29 35 
e 29 32 
e 29 30 
e 30 51 
e 31 60 
e 31 57 
e 32 60 
e 33 46 
e 34 70 
e 34 66 
e 34 61 
e 34 58 
e 35 59 
e 35 52 
e 35 48 
e 35 39 
e 36 44 
e 36 42 
e 37 69 
e 37 61 
e 37 53 
e 38 68 
e 38 64 
e 38 56 
e 39 49 
e 39 47 
e 40 47 
e 41 63 
e 41 62 
e 42 63 
e 42 61 
e 42 51 
e 43 70 
e 45 65 
e 45 47 
e 46 68 
e 46 66 
e 46 56 
e 46 48 
e 47 60 
e 48 61 
e 48 60 
e 48 59 
e 49 63 
e 49 57 
e 49 54 
e 50 63 
e 50 53 
e 51 63 
e 52 56 
e 53 65 
e 53 61 
e 54 67 
e 54 61 
e 54 59 
e 54 58 
e 54 56 
e 56 69 
e 57 63 
e 57 62 
e 58 64 
e 61 66 
e 62 65 
e 63 68 
e 63 67 
e 65 68 
e 66 68 
e 69 70 
